(set-info :smt-lib-version 2.6)
(set-logic AUFBVFPDTNIRA)
(set-info :source |
Generated by: AdaCore
Generated on: 2020-03-06
Generator: SPARK
Application: Program verification for Ada
Target solver: Z3
|)
(set-info :license "https://creativecommons.org/licenses/by/4.0/")
(set-info :category "industrial")
(set-info :status unknown)
;;; generated by SMT-LIB2 driver
;;; SMT-LIB2 driver: bit-vectors, common part
;;; SMT-LIB2: integer arithmetic
(declare-sort string 0)

(declare-datatypes () ((tuple0 (Tuple0))))
(declare-sort us_private 0)

(declare-fun private__bool_eq (us_private us_private) Bool)

(declare-const us_null_ext__ us_private)

(declare-sort us_type_of_heap 0)

(declare-datatypes ()
((us_type_of_heap__ref
 (us_type_of_heap__refqtmk (us_type_of_heap__content us_type_of_heap)))))
(declare-sort us_image 0)

(declare-datatypes () ((int__ref (int__refqtmk (int__content Int)))))
(declare-datatypes () ((bool__ref (bool__refqtmk (bool__content Bool)))))
(declare-datatypes ()
((us_fixed__ref (us_fixed__refqtmk (us_fixed__content Int)))))
(declare-datatypes () ((real__ref (real__refqtmk (real__content Real)))))
(declare-datatypes ()
((us_private__ref (us_private__refqtmk (us_private__content us_private)))))
(define-fun int__ref___projection ((a int__ref)) Int (int__content a))

(define-fun us_fixed__ref___projection ((a us_fixed__ref)) Int (us_fixed__content
                                                               a))

(define-fun bool__ref___projection ((a bool__ref)) Bool (bool__content a))

(define-fun real__ref___projection ((a real__ref)) Real (real__content a))

(define-fun us_private__ref___projection ((a us_private__ref)) us_private 
  (us_private__content a))

(declare-fun nth ((_ BitVec 8) Int) Bool)

(declare-fun lsr ((_ BitVec 8) Int) (_ BitVec 8))

(declare-fun asr ((_ BitVec 8) Int) (_ BitVec 8))

(declare-fun lsl ((_ BitVec 8) Int) (_ BitVec 8))

(define-fun abs1 ((x Int)) Int (ite (<= 0 x) x (- x)))

;; Abs_le
  (assert
  (forall ((x Int) (y Int)) (= (<= (abs1 x) y) (and (<= (- y) x) (<= x y)))))

;; Abs_pos
  (assert (forall ((x Int)) (<= 0 (abs1 x))))

(declare-fun rotate_right1 ((_ BitVec 8) Int) (_ BitVec 8))

(declare-fun rotate_left1 ((_ BitVec 8) Int) (_ BitVec 8))

(declare-fun pow2 (Int) Int)

(define-fun to_int1 ((x (_ BitVec 8))) Int (ite (bvsge x (_ bv0 8))
                                           (bv2int x) (- (- 256 (bv2int x)))))

(define-fun uint_in_range ((i Int)) Bool (and (<= 0 i) (<= i 255)))

(declare-fun nth_bv ((_ BitVec 8) (_ BitVec 8)) Bool)

(declare-fun eq_sub_bv ((_ BitVec 8) (_ BitVec 8) (_ BitVec 8)
  (_ BitVec 8)) Bool)

(define-fun eq_sub ((a (_ BitVec 8)) (b (_ BitVec 8)) (i Int)
  (n Int)) Bool (forall ((j Int))
                (=> (and (<= i j) (< j (+ i n))) (= (nth a j) (nth b j)))))

(declare-datatypes () ((t__ref (t__refqtmk (t__content (_ BitVec 8))))))
(declare-fun power ((_ BitVec 8) Int) (_ BitVec 8))

(define-fun bv_min ((x (_ BitVec 8))
  (y (_ BitVec 8))) (_ BitVec 8) (ite (bvule x y) x y))

(define-fun bv_max ((x (_ BitVec 8))
  (y (_ BitVec 8))) (_ BitVec 8) (ite (bvule x y) y x))

(define-fun min ((x Int) (y Int)) Int (ite (<= x y) x y))

(define-fun max ((x Int) (y Int)) Int (ite (<= x y) y x))

;; Min_r
  (assert (forall ((x Int) (y Int)) (=> (<= y x) (= (min x y) y))))

;; Max_l
  (assert (forall ((x Int) (y Int)) (=> (<= y x) (= (max x y) x))))

;; Min_comm
  (assert (forall ((x Int) (y Int)) (= (min x y) (min y x))))

;; Max_comm
  (assert (forall ((x Int) (y Int)) (= (max x y) (max y x))))

;; Min_assoc
  (assert
  (forall ((x Int) (y Int) (z Int)) (= (min (min x y) z) (min x (min y z)))))

;; Max_assoc
  (assert
  (forall ((x Int) (y Int) (z Int)) (= (max (max x y) z) (max x (max y z)))))

(declare-sort character 0)

(define-fun in_range ((x Int)) Bool (and (<= 0 x) (<= x 255)))

(declare-fun attr__ATTRIBUTE_IMAGE (Int) us_image)

(declare-fun attr__ATTRIBUTE_VALUE__pre_check (us_image) Bool)

(declare-fun attr__ATTRIBUTE_VALUE (us_image) Int)

(declare-fun user_eq (character character) Bool)

(declare-const dummy character)

(declare-datatypes ()
((character__ref (character__refqtmk (character__content character)))))
(define-fun character__ref_character__content__projection ((a character__ref)) character 
  (character__content a))

(declare-fun to_rep (character) Int)

(declare-fun of_rep (Int) character)

;; inversion_axiom
  (assert
  (forall ((x character))
  (! (= (of_rep (to_rep x)) x) :pattern ((to_rep x)) )))

;; range_axiom
  (assert
  (forall ((x character)) (! (in_range (to_rep x)) :pattern ((to_rep x)) )))

;; coerce_axiom
  (assert
  (forall ((x Int))
  (! (=> (in_range x) (= (to_rep (of_rep x)) x)) :pattern ((to_rep
                                                           (of_rep x))) )))

(declare-datatypes ()
((map__ref (map__refqtmk (map__content (Array (_ BitVec 8) character))))))
(declare-fun slide ((Array (_ BitVec 8) character) (_ BitVec 8)
  (_ BitVec 8)) (Array (_ BitVec 8) character))

;; slide_eq
  (assert
  (forall ((a (Array (_ BitVec 8) character)))
  (forall ((first (_ BitVec 8)))
  (! (= (slide a first first) a) :pattern ((slide a first first)) ))))

;; slide_def
  (assert
  (forall ((a (Array (_ BitVec 8) character)))
  (forall ((old_first (_ BitVec 8)))
  (forall ((new_first (_ BitVec 8)))
  (forall ((i (_ BitVec 8)))
  (! (= (select (slide a old_first new_first) i) (select a (bvsub i (bvsub new_first old_first)))) :pattern ((select 
  (slide a old_first new_first) i)) ))))))

(define-fun bool_eq ((a (Array (_ BitVec 8) character))
  (a__first (_ BitVec 8)) (a__last (_ BitVec 8))
  (b (Array (_ BitVec 8) character)) (b__first (_ BitVec 8))
  (b__last (_ BitVec 8))) Bool (ite (and
                                    (ite (bvule a__first a__last)
                                    (and (bvule b__first b__last)
                                    (= (bvsub a__last a__first) (bvsub b__last b__first)))
                                    (bvugt b__first b__last))
                                    (forall ((temp___idx_154 (_ BitVec 8)))
                                    (=>
                                    (and (bvule a__first temp___idx_154)
                                    (bvule temp___idx_154 a__last))
                                    (= (to_rep (select a temp___idx_154)) 
                                    (to_rep
                                    (select b (bvadd (bvsub b__first a__first) temp___idx_154)))))))
                               true false))

;; bool_eq_rev
  (assert
  (forall ((a (Array (_ BitVec 8) character))
  (b (Array (_ BitVec 8) character)))
  (forall ((a__first (_ BitVec 8)) (a__last (_ BitVec 8))
  (b__first (_ BitVec 8)) (b__last (_ BitVec 8)))
  (=> (= (bool_eq b b__first b__last a a__first a__last) true)
  (and
  (ite (bvule a__first a__last)
  (and (bvule b__first b__last)
  (= (bvsub a__last a__first) (bvsub b__last b__first)))
  (bvugt b__first b__last))
  (forall ((temp___idx_154 (_ BitVec 8)))
  (=> (and (bvule a__first temp___idx_154) (bvule temp___idx_154 a__last))
  (= (to_rep (select a temp___idx_154)) (to_rep
                                        (select b (bvadd (bvsub b__first a__first) temp___idx_154)))))))))))

(declare-const attr__ATTRIBUTE_ADDRESS Int)

(declare-const attr__ATTRIBUTE_ADDRESS1 Int)

(declare-const attr__ATTRIBUTE_ADDRESS2 Int)

(declare-const attr__ATTRIBUTE_ADDRESS3 Int)

(declare-fun temp___String_Literal_209 (tuple0) (Array (_ BitVec 8) character))

;; temp___String_Literal_209__def_axiom
  (assert
  (forall ((us_void_param tuple0))
  (! (and
     (and
     (= (to_rep (select (temp___String_Literal_209 us_void_param) #x01)) 49)
     (= (to_rep (select (temp___String_Literal_209 us_void_param) #x02)) 50))
     (and
     (and
     (and
     (= (to_rep (select (temp___String_Literal_209 us_void_param) #x03)) 51)
     (= (to_rep (select (temp___String_Literal_209 us_void_param) #x04)) 52))
     (and
     (= (to_rep (select (temp___String_Literal_209 us_void_param) #x05)) 53)
     (= (to_rep (select (temp___String_Literal_209 us_void_param) #x06)) 54)))
     (and
     (and
     (= (to_rep (select (temp___String_Literal_209 us_void_param) #x07)) 55)
     (= (to_rep (select (temp___String_Literal_209 us_void_param) #x08)) 56))
     (and
     (= (to_rep (select (temp___String_Literal_209 us_void_param) #x09)) 57)
     (= (to_rep (select (temp___String_Literal_209 us_void_param) #x0A)) 48))))) :pattern (
  (temp___String_Literal_209 us_void_param)) )))

(declare-fun temp___String_Literal_210 (tuple0) (Array (_ BitVec 8) character))

;; temp___String_Literal_210__def_axiom
  (assert
  (forall ((us_void_param tuple0))
  (! (and
     (and
     (= (to_rep (select (temp___String_Literal_210 us_void_param) #x00)) 49)
     (= (to_rep (select (temp___String_Literal_210 us_void_param) #x01)) 50))
     (and
     (and
     (and
     (= (to_rep (select (temp___String_Literal_210 us_void_param) #x02)) 51)
     (= (to_rep (select (temp___String_Literal_210 us_void_param) #x03)) 52))
     (and
     (= (to_rep (select (temp___String_Literal_210 us_void_param) #x04)) 53)
     (= (to_rep (select (temp___String_Literal_210 us_void_param) #x05)) 54)))
     (and
     (and
     (= (to_rep (select (temp___String_Literal_210 us_void_param) #x06)) 55)
     (= (to_rep (select (temp___String_Literal_210 us_void_param) #x07)) 56))
     (and
     (= (to_rep (select (temp___String_Literal_210 us_void_param) #x08)) 57)
     (= (to_rep (select (temp___String_Literal_210 us_void_param) #x09)) 48))))) :pattern (
  (temp___String_Literal_210 us_void_param)) )))

(declare-fun temp___String_Literal_211 (tuple0) (Array (_ BitVec 8) character))

;; temp___String_Literal_211__def_axiom
  (assert
  (forall ((us_void_param tuple0))
  (! (and
     (and
     (= (to_rep (select (temp___String_Literal_211 us_void_param) #x00)) 49)
     (= (to_rep (select (temp___String_Literal_211 us_void_param) #x01)) 50))
     (and
     (and
     (and
     (= (to_rep (select (temp___String_Literal_211 us_void_param) #x02)) 51)
     (= (to_rep (select (temp___String_Literal_211 us_void_param) #x03)) 52))
     (and
     (= (to_rep (select (temp___String_Literal_211 us_void_param) #x04)) 53)
     (= (to_rep (select (temp___String_Literal_211 us_void_param) #x05)) 54)))
     (and
     (and
     (= (to_rep (select (temp___String_Literal_211 us_void_param) #x06)) 55)
     (= (to_rep (select (temp___String_Literal_211 us_void_param) #x07)) 56))
     (and
     (= (to_rep (select (temp___String_Literal_211 us_void_param) #x08)) 57)
     (= (to_rep (select (temp___String_Literal_211 us_void_param) #x09)) 97))))) :pattern (
  (temp___String_Literal_211 us_void_param)) )))

(declare-fun temp___String_Literal_212 (tuple0) (Array (_ BitVec 8) character))

;; temp___String_Literal_212__def_axiom
  (assert
  (forall ((us_void_param tuple0))
  (! (and
     (and
     (= (to_rep (select (temp___String_Literal_212 us_void_param) #x01)) 49)
     (= (to_rep (select (temp___String_Literal_212 us_void_param) #x02)) 50))
     (and
     (and
     (= (to_rep (select (temp___String_Literal_212 us_void_param) #x03)) 51)
     (= (to_rep (select (temp___String_Literal_212 us_void_param) #x04)) 52))
     (= (to_rep (select (temp___String_Literal_212 us_void_param) #x05)) 53))) :pattern (
  (temp___String_Literal_212 us_void_param)) )))

(define-fun dynamic_invariant ((temp___expr_74 Int) (temp___is_init_70 Bool)
  (temp___skip_constant_71 Bool) (temp___do_toplevel_72 Bool)
  (temp___do_typ_inv_73 Bool)) Bool (=>
                                    (or (= temp___is_init_70 true)
                                    (<= 0 255)) (in_range temp___expr_74)))

(declare-const x (Array (_ BitVec 8) character))

;; H
  (assert (= x (temp___String_Literal_209 Tuple0)))

;; Assume
  (assert true)

(declare-const y (Array (_ BitVec 8) character))

;; H
  (assert (= y (temp___String_Literal_210 Tuple0)))

;; Assume
  (assert true)

(declare-const z (Array (_ BitVec 8) character))

;; H
  (assert (= z (temp___String_Literal_211 Tuple0)))

;; Assume
  (assert true)

(declare-const f (Array (_ BitVec 8) character))

;; H
  (assert (= f (temp___String_Literal_212 Tuple0)))

;; Assume
  (assert true)

(declare-const strlit__dosome__result Int)

;; H
  (assert (= strlit__dosome__result 10))

(assert
;; defqtvc
 ;; File "strlit.ads", line 6, characters 0-0
  (not (= strlit__dosome__result 10)))
(check-sat)
